n=5;
m=25;
x=[1, 1, 1, 1, 1, 2, 2, 2, 2, 2, 3, 3, 3, 3, 3, 4, 4, 4, 4, 4, 5, 5, 5, 5, 5];
y=[1, 2, 3, 4, 5, 1, 2, 3, 4, 5, 1, 2, 3, 4, 5, 1, 2, 3, 4, 5, 1, 2, 3, 4, 5];
M=24;
N=24;
xs=[0, 1, 1, 1, 1, 2, 1, 2, 1, 3, 1, 3, 1, 4, 1, 4, 2, 3, 2, 3, 3, 4, 3, 4];
ys=[1, 0, 1, -1, 2, 1, -2, -1, 3, 1, -3, -1, 4, 1, -4, -1, 3, 2, -3, -2, 4, 3, -4, -3];
ks=[4, 4, 4, 4, 2, 2, 2, 2, 1, 1, 1, 1, 1, 1, 1, 1, 1, 1, 1, 1, 1, 1, 1, 1];
r90=[21, 16, 11, 6, 1, 22, 17, 12, 7, 2, 23, 18, 13, 8, 3, 24, 19, 14, 9, 4, 25, 20, 15, 10, 5];
r180=[25, 24, 23, 22, 21, 20, 19, 18, 17, 16, 15, 14, 13, 12, 11, 10, 9, 8, 7, 6, 5, 4, 3, 2, 1];
r270=[5, 10, 15, 20, 25, 4, 9, 14, 19, 24, 3, 8, 13, 18, 23, 2, 7, 12, 17, 22, 1, 6, 11, 16, 21];
reflect=[5, 4, 3, 2, 1, 10, 9, 8, 7, 6, 15, 14, 13, 12, 11, 20, 19, 18, 17, 16, 25, 24, 23, 22, 21];
r180_reflect=[21, 22, 23, 24, 25, 16, 17, 18, 19, 20, 11, 12, 13, 14, 15, 6, 7, 8, 9, 10, 1, 2, 3, 4, 5];
r270_reflect=[25, 20, 15, 10, 5, 24, 19, 14, 9, 4, 23, 18, 13, 8, 3, 22, 17, 12, 7, 2, 21, 16, 11, 6, 1];